<?xml version = "1.0" standalone="yes"?>
<!-- This file has been generated by DOcplex version 2.23.222  -->
<CPLEXSolution version="1.0">
 <header
   problemName="CVRP"
   objectiveValue="17561"
  />
 <variables>
  <variable name="x_0_1" index="0" value="1.00000"/>
  <variable name="x_0_3" index="2" value="1.00000"/>
  <variable name="x_0_4" index="3" value="1.00000"/>
  <variable name="x_0_5" index="4" value="1.00000"/>
  <variable name="x_0_6" index="5" value="1.00000"/>
  <variable name="x_0_10" index="9" value="1.00000"/>
  <variable name="x_0_12" index="11" value="1.00000"/>
  <variable name="x_0_13" index="12" value="1.00000"/>
  <variable name="x_0_14" index="13" value="1.00000"/>
  <variable name="x_0_17" index="16" value="1.00000"/>
  <variable name="x_0_22" index="21" value="1.00000"/>
  <variable name="x_0_23" index="22" value="1.00000"/>
  <variable name="x_0_25" index="24" value="1.00000"/>
  <variable name="x_1_21" index="47" value="1.00000"/>
  <variable name="x_2_27" index="80" value="1.00000"/>
  <variable name="x_3_15" index="95" value="1.00000"/>
  <variable name="x_4_8" index="115" value="1.00000"/>
  <variable name="x_5_16" index="150" value="1.00000"/>
  <variable name="x_6_11" index="172" value="1.00000"/>
  <variable name="x_7_0" index="189" value="1.00000"/>
  <variable name="x_8_0" index="216" value="1.00000"/>
  <variable name="x_9_0" index="243" value="1.00000"/>
  <variable name="x_10_0" index="270" value="1.00000"/>
  <variable name="x_11_19" index="315" value="1.00000"/>
  <variable name="x_12_2" index="326" value="1.00000"/>
  <variable name="x_13_0" index="351" value="1.00000"/>
  <variable name="x_14_0" index="378" value="1.00000"/>
  <variable name="x_15_0" index="405" value="1.00000"/>
  <variable name="x_16_20" index="451" value="1.00000"/>
  <variable name="x_17_26" index="484" value="1.00000"/>
  <variable name="x_18_0" index="486" value="1.00000"/>
  <variable name="x_19_0" index="513" value="1.00000"/>
  <variable name="x_20_0" index="540" value="1.00000"/>
  <variable name="x_21_9" index="576" value="1.00000"/>
  <variable name="x_22_0" index="594" value="1.00000"/>
  <variable name="x_23_24" index="644" value="1.00000"/>
  <variable name="x_24_7" index="655" value="1.00000"/>
  <variable name="x_25_0" index="675" value="1.00000"/>
  <variable name="x_26_18" index="720" value="1.00000"/>
  <variable name="x_27_0" index="729" value="1.00000"/>
  <variable name="u_1" index="756" value="38.00000"/>
  <variable name="u_2" index="757" value="37.00000"/>
  <variable name="u_3" index="758" value="6.00000"/>
  <variable name="u_4" index="759" value="36.00000"/>
  <variable name="u_5" index="760" value="41.00000"/>
  <variable name="u_6" index="761" value="23.00000"/>
  <variable name="u_7" index="762" value="61.00000"/>
  <variable name="u_8" index="763" value="61.00000"/>
  <variable name="u_9" index="764" value="57.00000"/>
  <variable name="u_10" index="765" value="24.00000"/>
  <variable name="u_11" index="766" value="49.00000"/>
  <variable name="u_12" index="767" value="13.00000"/>
  <variable name="u_13" index="768" value="61.00000"/>
  <variable name="u_14" index="769" value="61.00000"/>
  <variable name="u_15" index="770" value="61.00000"/>
  <variable name="u_16" index="771" value="52.00000"/>
  <variable name="u_17" index="772" value="6.00000"/>
  <variable name="u_18" index="773" value="59.00000"/>
  <variable name="u_19" index="774" value="61.00000"/>
  <variable name="u_20" index="775" value="61.00000"/>
  <variable name="u_21" index="776" value="44.00000"/>
  <variable name="u_22" index="777" value="57.00000"/>
  <variable name="u_23" index="778" value="36.00000"/>
  <variable name="u_24" index="779" value="41.00000"/>
  <variable name="u_25" index="780" value="61.00000"/>
  <variable name="u_26" index="781" value="48.00000"/>
  <variable name="u_27" index="782" value="61.00000"/>
 </variables>
</CPLEXSolution>
